(set-logic QF_NRA)
(declare-fun x () Real)
(assert (<= (/ 1 2) x))
(assert (<= x (/ 2 1)))
(assert 
	(not 
		(and 
			(or 
				(not 
					(<= 
						0
						(+ (+ (sqrt x) (* -1 (/ (+ 1 x) 2))) (/ 8940697 100000000000000))))
				(<= 
					(+ (+ (sqrt x) (* -1 (/ (+ 1 x) 2))) (/ 8940697 100000000000000))
					(+ (/ 1 (^ 2 2)) (* 3 (/ 1 8388608))))) 
			(or 
				(not 
					(not 
						(<= 
							0
							(- (+ (sqrt x) (* -1 (/ (+ 1 x) 2))) (/ 8940697 100000000000000)))))
				(<= 
					(+ (* -1 (+ (sqrt x) (* -1 (/ (+ 1 x) 2)))) (/ 8940697 100000000000000))
					(+ (/ 1 (^ 2 2)) (* 3 (/ 1 8388608))))))))
(check-sat)
(get-model)
(exit)
